* ENCODING=ISO-8859-1
NAME          CPLEX
ROWS
 N  obj1    
 G  c1      
 G  c2      
 G  c3      
 G  c4      
 G  c5      
 G  c6      
 G  c7      
 G  c8      
 G  c9      
 G  c10     
 G  c11     
 G  c12     
 G  c13     
 G  c14     
 G  c15     
 G  c16     
 G  c17     
 G  c18     
 G  c19     
 G  c20     
 G  c21     
 G  c22     
 G  c23     
 G  c24     
 G  c25     
 G  c26     
 G  c27     
 G  c28     
 G  c29     
 G  c30     
 G  c31     
 G  c32     
 G  c33     
 G  c34     
 G  c35     
COLUMNS
    MARK0000  'MARKER'                 'INTORG'
    x1        obj1                            1
    x1        c3                            163
    x1        c6                            572
    x1        c10                           475
    x1        c13                           970
    x1        c15                           529
    x1        c25                           553
    x1        c30                           485
    x1        c31                           120
    x2        obj1                            1
    x2        c9                            468
    x2        c23                           532
    x2        c24                           867
    x2        c25                           179
    x2        c30                           386
    x3        obj1                            1
    x3        c22                           863
    x4        obj1                            1
    x4        c2                            930
    x4        c23                           955
    x4        c31                           701
    x5        obj1                            1
    x5        c14                           548
    x5        c19                           486
    x5        c20                           894
    x5        c34                           535
    x6        obj1                            1
    x6        c4                            483
    x6        c17                           851
    x6        c18                           685
    x6        c21                           977
    x6        c25                           663
    x7        obj1                            1
    x7        c18                           849
    x7        c26                           973
    x8        obj1                            1
    x8        c6                            578
    x8        c8                            514
    x8        c9                            577
    x8        c12                           429
    x8        c13                           499
    x8        c20                           296
    x8        c24                           401
    x9        obj1                            1
    x9        c26                           236
    x9        c29                           672
    x10       obj1                            1
    x10       c1                            913
    x10       c21                           215
    x11       obj1                            1
    x11       c5                            253
    x11       c19                           427
    x11       c31                           756
    x12       obj1                            1
    x12       c16                           484
    x12       c31                           297
    x13       obj1                            1
    x13       c4                            432
    x13       c6                            983
    x14       obj1                            1
    x14       c3                            743
    x14       c10                           852
    x14       c15                           487
    x14       c18                           114
    x15       obj1                            1
    x15       c7                            452
    x15       c21                           696
    x15       c33                           745
    x16       obj1                            1
    x16       c6                            302
    x16       c26                           698
    x16       c28                           339
    x16       c33                           282
    x17       obj1                            1
    x17       c8                            812
    x17       c12                           992
    x17       c13                           315
    x17       c27                           372
    x17       c30                           698
    x17       c33                           376
    x18       obj1                            1
    x19       obj1                            1
    x19       c8                            684
    x19       c9                            872
    x19       c21                           533
    x19       c23                           196
    x19       c34                           436
    x20       obj1                            1
    x20       c3                            493
    x20       c8                            879
    x20       c13                           693
    x20       c22                           617
    x20       c32                           538
    x21       obj1                            1
    x21       c2                            446
    x21       c23                           524
    x21       c33                           398
    x22       obj1                            1
    x22       c4                            192
    x23       obj1                            1
    x23       c35                           505
    x24       obj1                            1
    x24       c11                           333
    x24       c22                           197
    x24       c33                           454
    x25       obj1                            1
    x25       c8                            326
    x25       c14                           914
    x25       c26                           182
    x26       obj1                            1
    x26       c29                           120
    x27       obj1                            1
    x27       c3                            564
    x27       c6                            558
    x27       c21                           103
    x27       c29                           488
    x27       c31                           450
    x28       obj1                            1
    x28       c1                            939
    x28       c20                           353
    x29       obj1                            1
    x29       c15                           875
    x29       c27                           325
    x29       c32                           283
    x30       obj1                            1
    x30       c3                            957
    x30       c21                           481
    x30       c28                           866
    x30       c35                           877
    x31       obj1                            1
    x31       c6                            734
    x31       c10                           522
    x31       c19                           210
    x31       c23                           297
    x31       c24                           930
    x31       c32                           775
    x31       c33                           375
    x32       obj1                            1
    x32       c1                            494
    x32       c6                            736
    x32       c7                            603
    x32       c19                           944
    x32       c32                           242
    x33       obj1                            1
    x34       obj1                            1
    x34       c6                            190
    x34       c7                            185
    x34       c31                           425
    x35       obj1                            1
    x35       c12                           200
    x35       c14                           173
    x35       c21                           454
    x35       c22                           963
    x35       c25                           678
    x36       obj1                            1
    x36       c5                            115
    x36       c8                            317
    x36       c11                           935
    x36       c32                           226
    x36       c34                           603
    x37       obj1                            1
    x37       c7                            514
    x37       c27                           103
    x38       obj1                            1
    x38       c1                            918
    x38       c4                            145
    x38       c27                           203
    x39       obj1                            1
    x39       c17                           565
    x39       c26                           688
    x40       obj1                            1
    x40       c4                            709
    x40       c14                           479
    x40       c15                           574
    x41       obj1                            1
    x41       c8                            581
    x41       c10                           724
    x41       c11                           399
    x41       c15                           986
    x41       c18                           868
    x42       obj1                            1
    x43       obj1                            1
    x43       c1                            260
    x43       c19                           451
    x44       obj1                            1
    x44       c16                           307
    x44       c17                           582
    x44       c26                           565
    x45       obj1                            1
    x45       c6                            691
    x45       c12                           169
    x45       c13                           185
    x45       c28                           479
    x45       c31                           563
    x46       obj1                            1
    x46       c7                            293
    x46       c35                           361
    x47       obj1                            1
    x47       c14                           448
    x47       c18                           334
    x47       c21                           705
    x47       c23                           294
    x47       c27                           381
    x48       obj1                            1
    x48       c1                            420
    x48       c4                            186
    x48       c9                            176
    x48       c15                           202
    x48       c19                           233
    x48       c23                           227
    x48       c25                           514
    x48       c30                           414
    x49       obj1                            1
    x49       c4                            429
    x49       c12                           180
    x49       c24                           976
    x50       obj1                            1
    x50       c1                            533
    x50       c5                            427
    x51       obj1                            1
    x51       c2                            628
    x51       c3                            760
    x51       c9                            540
    x51       c27                           137
    x51       c30                           243
    x51       c34                           791
    x52       obj1                            1
    x52       c5                            577
    x52       c14                           617
    x52       c16                           384
    x53       obj1                            1
    x53       c4                            884
    x53       c7                            939
    x53       c11                           916
    x53       c15                           339
    x53       c23                           913
    x54       obj1                            1
    x54       c3                            987
    x54       c5                            391
    x54       c19                           268
    x54       c28                           446
    x55       obj1                            1
    x55       c1                            243
    x55       c14                           826
    x55       c15                           575
    x55       c18                           476
    x55       c21                           420
    x55       c24                           830
    x55       c28                           591
    x55       c29                           867
    x56       obj1                            1
    x56       c4                            708
    x56       c11                           450
    x56       c12                           288
    x56       c19                           425
    x56       c22                           766
    x56       c23                           868
    x56       c27                           963
    x56       c33                           790
    x57       obj1                            1
    x57       c2                            948
    x57       c6                            540
    x57       c13                           943
    x57       c20                           475
    x58       obj1                            1
    x58       c1                            392
    x58       c3                            837
    x58       c34                           546
    x59       obj1                            1
    x60       obj1                            1
    x60       c3                            200
    x60       c13                           882
    x60       c16                           200
    x60       c33                           216
    x61       obj1                            1
    x61       c17                           543
    x61       c32                           713
    x61       c34                           947
    x61       c35                           591
    x62       obj1                            1
    x62       c5                            648
    x62       c8                            425
    x62       c11                           239
    x62       c13                           696
    x62       c19                           539
    x62       c30                           919
    x62       c34                           337
    x63       obj1                            1
    x63       c9                            708
    x63       c10                           964
    x63       c11                           713
    x63       c19                           364
    x63       c25                           294
    x64       obj1                            1
    x64       c1                            186
    x64       c32                           316
    x65       obj1                            1
    x65       c2                            116
    x65       c14                           100
    x65       c25                           297
    x65       c31                           542
    x66       obj1                            1
    x66       c15                           206
    x66       c30                           699
    x66       c33                           486
    x67       obj1                            1
    x67       c5                            586
    x67       c9                            830
    x67       c13                           319
    x67       c18                           346
    x67       c28                           299
    x68       obj1                            1
    x68       c5                            751
    x68       c15                           260
    x68       c16                           611
    x68       c22                           363
    x69       obj1                            1
    x69       c18                           730
    x69       c23                           945
    x70       obj1                            1
    x70       c8                            613
    x70       c18                           185
    x70       c27                           447
    MARK0001  'MARKER'                 'INTEND'
RHS
    rhs       c1                           2649
    rhs       c2                           1534
    rhs       c3                           2852
    rhs       c4                           2084
    rhs       c5                           1874
    rhs       c6                           2942
    rhs       c7                           1493
    rhs       c8                           2576
    rhs       c9                           2086
    rhs       c10                          1769
    rhs       c11                          1993
    rhs       c12                          1129
    rhs       c13                          2751
    rhs       c14                          2053
    rhs       c15                          2517
    rhs       c16                           993
    rhs       c17                          1271
    rhs       c18                          2294
    rhs       c19                          2174
    rhs       c20                          1009
    rhs       c21                          2292
    rhs       c22                          1885
    rhs       c23                          2876
    rhs       c24                          2002
    rhs       c25                          1589
    rhs       c26                          1671
    rhs       c27                          1466
    rhs       c28                          1510
    rhs       c29                          1074
    rhs       c30                          1922
    rhs       c31                          1927
    rhs       c32                          1547
    rhs       c33                          2061
    rhs       c34                          2098
    rhs       c35                          1167
BOUNDS
 LI bnd       x1        0
 LI bnd       x2        0
 LI bnd       x3        0
 LI bnd       x4        0
 LI bnd       x5        0
 LI bnd       x6        0
 LI bnd       x7        0
 LI bnd       x8        0
 LI bnd       x9        0
 LI bnd       x10       0
 LI bnd       x11       0
 LI bnd       x12       0
 LI bnd       x13       0
 LI bnd       x14       0
 LI bnd       x15       0
 LI bnd       x16       0
 LI bnd       x17       0
 LI bnd       x18       0
 LI bnd       x19       0
 LI bnd       x20       0
 LI bnd       x21       0
 LI bnd       x22       0
 LI bnd       x23       0
 LI bnd       x24       0
 LI bnd       x25       0
 LI bnd       x26       0
 LI bnd       x27       0
 LI bnd       x28       0
 LI bnd       x29       0
 LI bnd       x30       0
 LI bnd       x31       0
 LI bnd       x32       0
 LI bnd       x33       0
 LI bnd       x34       0
 LI bnd       x35       0
 LI bnd       x36       0
 LI bnd       x37       0
 LI bnd       x38       0
 LI bnd       x39       0
 LI bnd       x40       0
 LI bnd       x41       0
 LI bnd       x42       0
 LI bnd       x43       0
 LI bnd       x44       0
 LI bnd       x45       0
 LI bnd       x46       0
 LI bnd       x47       0
 LI bnd       x48       0
 LI bnd       x49       0
 LI bnd       x50       0
 LI bnd       x51       0
 LI bnd       x52       0
 LI bnd       x53       0
 LI bnd       x54       0
 LI bnd       x55       0
 LI bnd       x56       0
 LI bnd       x57       0
 LI bnd       x58       0
 LI bnd       x59       0
 LI bnd       x60       0
 LI bnd       x61       0
 LI bnd       x62       0
 LI bnd       x63       0
 LI bnd       x64       0
 LI bnd       x65       0
 LI bnd       x66       0
 LI bnd       x67       0
 LI bnd       x68       0
 LI bnd       x69       0
 LI bnd       x70       0
ENDATA
